\ENCODING=ISO-8859-1
\Problem name: IloCplex

Minimize
 obj1: lambda_0 + lambda_1 + lambda_2 + lambda_3 + lambda_4 + lambda_5
       + lambda_6 + lambda_7 + lambda_8 + lambda_9 + lambda_10 + lambda_11
       + lambda_12 + lambda_13 + lambda_14 + lambda_15 + lambda_16 + lambda_17
       + lambda_18 + lambda_19 + lambda_20 + lambda_21 + lambda_22 + lambda_23
       + lambda_24 + lambda_25 + lambda_26 + lambda_27 + lambda_28 + lambda_29
       + lambda_30 + lambda_31 + lambda_32 + lambda_33 + lambda_34 + lambda_35
       + lambda_36 + lambda_37 + lambda_38 + lambda_39 + lambda_40 + lambda_41
       + lambda_42 + lambda_43 + lambda_44 + lambda_45 + lambda_46 + lambda_47
       + lambda_48 + lambda_49 + lambda_50 + lambda_51 + lambda_52 + lambda_53
       + lambda_54 + lambda_55 + lambda_56 + lambda_57 + lambda_58 + lambda_59
       + lambda_60 + lambda_61 + lambda_62 + lambda_63 + lambda_64 + lambda_65
       + lambda_66 + lambda_67 + lambda_68 + lambda_69 + lambda_70 + lambda_71
       + lambda_72 + lambda_73 + lambda_74 + lambda_75 + lambda_76 + lambda_77
       + lambda_78 + lambda_79 + lambda_80 + lambda_81 + lambda_82 + lambda_83
       + lambda_84 + lambda_85 + lambda_86 + lambda_87 + lambda_88 + lambda_89
       + lambda_90 + lambda_91 + lambda_92 + lambda_93 + lambda_94 + lambda_95
       + lambda_96 + lambda_97 + lambda_98 + lambda_99 + lambda_100
       + lambda_101 + lambda_102 + lambda_103 + lambda_104 + lambda_105
       + lambda_106 + lambda_107 + lambda_108 + lambda_109 + lambda_110
       + lambda_111 + lambda_112 + lambda_113 + lambda_114 + lambda_115
       + lambda_116 + lambda_117 + lambda_118 + lambda_119 + lambda_120
       + lambda_121 + lambda_122 + lambda_123 + lambda_124 + lambda_125
       + lambda_126 + lambda_127 + lambda_128 + lambda_129 + lambda_130
       + lambda_131 + lambda_132 + lambda_133 + lambda_134 + lambda_135
       + lambda_136 + lambda_137 + lambda_138 + lambda_139 + lambda_140
       + lambda_141 + lambda_142 + lambda_143 + lambda_144 + lambda_145
       + lambda_146 + lambda_147 + lambda_148 + lambda_149 + lambda_150
       + lambda_151 + lambda_152 + lambda_153 + lambda_154 + lambda_155
       + lambda_156 + lambda_157 + lambda_158 + lambda_159 + lambda_160
       + lambda_161 + lambda_162 + lambda_163 + lambda_164 + lambda_165
       + lambda_166 + lambda_167 + lambda_168 + lambda_169 + lambda_170
       + lambda_171 + lambda_172 + lambda_173 + lambda_174 + lambda_175
       + lambda_176 + lambda_177 + lambda_178 + lambda_179 + lambda_180
       + lambda_181 + lambda_182 + lambda_183 + lambda_184 + lambda_185
       + lambda_186 + lambda_187 + lambda_188 + lambda_189 + lambda_190
       + lambda_191 + lambda_192 + lambda_193 + lambda_194 + lambda_195
       + lambda_196 + lambda_197 + lambda_198 + lambda_199
Subject To
 c1:   lambda_0  = 1
 c2:   lambda_1  = 1
 c3:   lambda_2  = 1
 c4:   lambda_3  = 1
 c5:   lambda_4  = 1
 c6:   lambda_5  = 1
 c7:   lambda_6  = 1
 c8:   lambda_7  = 1
 c9:   lambda_8  = 1
 c10:  lambda_9  = 1
 c11:  lambda_10  = 1
 c12:  lambda_11  = 1
 c13:  lambda_12  = 1
 c14:  lambda_13  = 1
 c15:  lambda_14  = 1
 c16:  lambda_15  = 1
 c17:  lambda_16  = 1
 c18:  lambda_17  = 1
 c19:  lambda_18  = 1
 c20:  lambda_19  = 1
 c21:  lambda_20  = 1
 c22:  lambda_21  = 1
 c23:  lambda_22  = 1
 c24:  lambda_23  = 1
 c25:  lambda_24  = 1
 c26:  lambda_25  = 1
 c27:  lambda_26  = 1
 c28:  lambda_27  = 1
 c29:  lambda_28  = 1
 c30:  lambda_29  = 1
 c31:  lambda_30  = 1
 c32:  lambda_31  = 1
 c33:  lambda_32  = 1
 c34:  lambda_33  = 1
 c35:  lambda_34  = 1
 c36:  lambda_35  = 1
 c37:  lambda_36  = 1
 c38:  lambda_37  = 1
 c39:  lambda_38  = 1
 c40:  lambda_39  = 1
 c41:  lambda_40  = 1
 c42:  lambda_41  = 1
 c43:  lambda_42  = 1
 c44:  lambda_43  = 1
 c45:  lambda_44  = 1
 c46:  lambda_45  = 1
 c47:  lambda_46  = 1
 c48:  lambda_47  = 1
 c49:  lambda_48  = 1
 c50:  lambda_49  = 1
 c51:  lambda_50  = 1
 c52:  lambda_51  = 1
 c53:  lambda_52  = 1
 c54:  lambda_53  = 1
 c55:  lambda_54  = 1
 c56:  lambda_55  = 1
 c57:  lambda_56  = 1
 c58:  lambda_57  = 1
 c59:  lambda_58  = 1
 c60:  lambda_59  = 1
 c61:  lambda_60  = 1
 c62:  lambda_61  = 1
 c63:  lambda_62  = 1
 c64:  lambda_63  = 1
 c65:  lambda_64  = 1
 c66:  lambda_65  = 1
 c67:  lambda_66  = 1
 c68:  lambda_67  = 1
 c69:  lambda_68  = 1
 c70:  lambda_69  = 1
 c71:  lambda_70  = 1
 c72:  lambda_71  = 1
 c73:  lambda_72  = 1
 c74:  lambda_73  = 1
 c75:  lambda_74  = 1
 c76:  lambda_75  = 1
 c77:  lambda_76  = 1
 c78:  lambda_77  = 1
 c79:  lambda_78  = 1
 c80:  lambda_79  = 1
 c81:  lambda_80  = 1
 c82:  lambda_81  = 1
 c83:  lambda_82  = 1
 c84:  lambda_83  = 1
 c85:  lambda_84  = 1
 c86:  lambda_85  = 1
 c87:  lambda_86  = 1
 c88:  lambda_87  = 1
 c89:  lambda_88  = 1
 c90:  lambda_89  = 1
 c91:  lambda_90  = 1
 c92:  lambda_91  = 1
 c93:  lambda_92  = 1
 c94:  lambda_93  = 1
 c95:  lambda_94  = 1
 c96:  lambda_95  = 1
 c97:  lambda_96  = 1
 c98:  lambda_97  = 1
 c99:  lambda_98  = 1
 c100: lambda_99  = 1
 c101: lambda_100  = 1
 c102: lambda_101  = 1
 c103: lambda_102  = 1
 c104: lambda_103  = 1
 c105: lambda_104  = 1
 c106: lambda_105  = 1
 c107: lambda_106  = 1
 c108: lambda_107  = 1
 c109: lambda_108  = 1
 c110: lambda_109  = 1
 c111: lambda_110  = 1
 c112: lambda_111  = 1
 c113: lambda_112  = 1
 c114: lambda_113  = 1
 c115: lambda_114  = 1
 c116: lambda_115  = 1
 c117: lambda_116  = 1
 c118: lambda_117  = 1
 c119: lambda_118  = 1
 c120: lambda_119  = 1
 c121: lambda_120  = 1
 c122: lambda_121  = 1
 c123: lambda_122  = 1
 c124: lambda_123  = 1
 c125: lambda_124  = 1
 c126: lambda_125  = 1
 c127: lambda_126  = 1
 c128: lambda_127  = 1
 c129: lambda_128  = 1
 c130: lambda_129  = 1
 c131: lambda_130  = 1
 c132: lambda_131  = 1
 c133: lambda_132  = 1
 c134: lambda_133  = 1
 c135: lambda_134  = 1
 c136: lambda_135  = 1
 c137: lambda_136  = 1
 c138: lambda_137  = 1
 c139: lambda_138  = 1
 c140: lambda_139  = 1
 c141: lambda_140  = 1
 c142: lambda_141  = 1
 c143: lambda_142  = 1
 c144: lambda_143  = 1
 c145: lambda_144  = 1
 c146: lambda_145  = 1
 c147: lambda_146  = 1
 c148: lambda_147  = 1
 c149: lambda_148  = 1
 c150: lambda_149  = 1
 c151: lambda_150  = 1
 c152: lambda_151  = 1
 c153: lambda_152  = 1
 c154: lambda_153  = 1
 c155: lambda_154  = 1
 c156: lambda_155  = 1
 c157: lambda_156  = 1
 c158: lambda_157  = 1
 c159: lambda_158  = 1
 c160: lambda_159  = 1
 c161: lambda_160  = 1
 c162: lambda_161  = 1
 c163: lambda_162  = 1
 c164: lambda_163  = 1
 c165: lambda_164  = 1
 c166: lambda_165  = 1
 c167: lambda_166  = 1
 c168: lambda_167  = 1
 c169: lambda_168  = 1
 c170: lambda_169  = 1
 c171: lambda_170  = 1
 c172: lambda_171  = 1
 c173: lambda_172  = 1
 c174: lambda_173  = 1
 c175: lambda_174  = 1
 c176: lambda_175  = 1
 c177: lambda_176  = 1
 c178: lambda_177  = 1
 c179: lambda_178  = 1
 c180: lambda_179  = 1
 c181: lambda_180  = 1
 c182: lambda_181  = 1
 c183: lambda_182  = 1
 c184: lambda_183  = 1
 c185: lambda_184  = 1
 c186: lambda_185  = 1
 c187: lambda_186  = 1
 c188: lambda_187  = 1
 c189: lambda_188  = 1
 c190: lambda_189  = 1
 c191: lambda_190  = 1
 c192: lambda_191  = 1
 c193: lambda_192  = 1
 c194: lambda_193  = 1
 c195: lambda_194  = 1
 c196: lambda_195  = 1
 c197: lambda_196  = 1
 c198: lambda_197  = 1
 c199: lambda_198  = 1
 c200: lambda_199  = 1
End
